NAME :
TYPE : CCVRP
COMMENT :
DIMENSION : 301
CAPACITY : 200
EDGE_WEIGHT_TYPE : EUC_2D_DBL
NODE_COORD_TYPE: TWOD_COORD
NODE_COORD_SECTION
1 0.0000 0.0000
2 5.7735 0.0000
3 2.8867 5.0000
4 -2.8868 5.0000
5 -5.7735 0.0000
6 -2.8867 -5.0000
7 2.8868 -5.0000
8 8.6603 5.0000
9 0.0000 10.0000
10 -8.6603 5.0000
11 -8.6603 -5.0000
12 0.0000 -10.0000
13 8.6603 -5.0000
14 5.3405 0.7500
15 3.3198 4.2500
16 6.4952 -1.2500
17 7.2169 -2.5000
18 7.9386 -3.7500
19 6.4952 1.2500
20 7.2169 2.5000
21 7.9386 3.7500
22 2.0207 5.0000
23 -2.0207 5.0000
24 4.3301 5.0000
25 5.7735 5.0000
26 7.2169 5.0000
27 2.1651 6.2500
28 1.4434 7.5000
29 0.7217 8.7500
30 -3.3198 4.2500
31 -5.3405 0.7500
32 -2.1651 6.2500
33 -1.4434 7.5000
34 -0.7217 8.7500
35 -4.3301 5.0000
36 -5.7735 5.0000
37 -7.2169 5.0000
38 -5.3405 -0.7500
39 -3.3198 -4.2500
40 -6.4952 1.2500
41 -7.2169 2.5000
42 -7.9386 3.7500
43 -6.4952 -1.2500
44 -7.2169 -2.5000
45 -7.9386 -3.7500
46 -2.0207 -5.0000
47 2.0207 -5.0000
48 -4.3301 -5.0000
49 -5.7735 -5.0000
50 -7.2169 -5.0000
51 -2.1651 -6.2500
52 -1.4434 -7.5000
53 -0.7217 -8.7500
54 3.3198 -4.2500
55 5.3405 -0.7500
56 2.1651 -6.2500
57 1.4434 -7.5000
58 0.7217 -8.7500
59 4.3301 -5.0000
60 5.7735 -5.0000
61 7.2169 -5.0000
62 7.2169 0.0000
63 3.6084 6.2500
64 -3.6084 6.2500
65 -7.2169 0.0000
66 -3.6084 -6.2500
67 3.6084 -6.2500
68 10.8253 6.2500
69 0.0000 12.5000
70 -10.8253 6.2500
71 -10.8253 -6.2500
72 0.0000 -12.5000
73 10.8253 -6.2500
74 6.6756 0.9375
75 4.1497 5.3125
76 8.1190 -1.5625
77 9.0211 -3.1250
78 9.9232 -4.6875
79 8.1190 1.5625
80 9.0211 3.1250
81 9.9232 4.6875
82 2.5259 6.2500
83 -2.5259 6.2500
84 5.4127 6.2500
85 7.2169 6.2500
86 9.0211 6.2500
87 2.7063 7.8125
88 1.8042 9.3750
89 0.9021 10.9375
90 -4.1497 5.3125
91 -6.6756 0.9375
92 -2.7063 7.8125
93 -1.8042 9.3750
94 -0.9021 10.9375
95 -5.4127 6.2500
96 -7.2169 6.2500
97 -9.0211 6.2500
98 -6.6756 -0.9375
99 -4.1497 -5.3125
100 -8.1190 1.5625
101 -9.0211 3.1250
102 -9.9232 4.6875
103 -8.1190 -1.5625
104 -9.0211 -3.1250
105 -9.9232 -4.6875
106 -2.5259 -6.2500
107 2.5259 -6.2500
108 -5.4127 -6.2500
109 -7.2169 -6.2500
110 -9.0211 -6.2500
111 -2.7063 -7.8125
112 -1.8042 -9.3750
113 -0.9021 -10.9375
114 4.1497 -5.3125
115 6.6756 -0.9375
116 2.7063 -7.8125
117 1.8042 -9.3750
118 0.9021 -10.9375
119 5.4127 -6.2500
120 7.2169 -6.2500
121 9.0211 -6.2500
122 9.0211 0.0000
123 4.5105 7.8125
124 -4.5105 7.8125
125 -9.0211 0.0000
126 -4.5105 -7.8125
127 4.5106 -7.8125
128 13.5316 7.8125
129 0.0000 15.6250
130 -13.5316 7.8125
131 -13.5316 -7.8125
132 0.0000 -15.6250
133 13.5316 -7.8125
134 8.3445 1.1719
135 5.1871 6.6406
136 10.1487 -1.9531
137 11.2764 -3.9062
138 12.4040 -5.8594
139 10.1487 1.9531
140 11.2764 3.9062
141 12.4040 5.8594
142 3.1574 7.8125
143 -3.1574 7.8125
144 6.7658 7.8125
145 9.0211 7.8125
146 11.2764 7.8125
147 3.3829 9.7656
148 2.2553 11.7187
149 1.1276 13.6719
150 -5.1871 6.6406
151 -8.3445 1.1719
152 -3.3829 9.7656
153 -2.2553 11.7187
154 -1.1276 13.6719
155 -6.7658 7.8125
156 -9.0211 7.8125
157 -11.2764 7.8125
158 -8.3445 -1.1719
159 -5.1871 -6.6406
160 -10.1487 1.9531
161 -11.2764 3.9062
162 -12.4040 5.8594
163 -10.1487 -1.9531
164 -11.2764 -3.9063
165 -12.4040 -5.8594
166 -3.1574 -7.8125
167 3.1574 -7.8125
168 -6.7658 -7.8125
169 -9.0211 -7.8125
170 -11.2764 -7.8125
171 -3.3829 -9.7656
172 -2.2553 -11.7187
173 -1.1276 -13.6719
174 5.1871 -6.6406
175 8.3445 -1.1719
176 3.3829 -9.7656
177 2.2553 -11.7187
178 1.1276 -13.6719
179 6.7658 -7.8125
180 9.0211 -7.8125
181 11.2764 -7.8125
182 11.2764 0.0000
183 5.6382 9.7656
184 -5.6382 9.7656
185 -11.2764 0.0000
186 -5.6382 -9.7656
187 5.6382 -9.7656
188 16.9146 9.7656
189 0.0000 19.5312
190 -16.9146 9.7656
191 -16.9146 -9.7656
192 0.0000 -19.5312
193 16.9146 -9.7656
194 10.4306 1.4648
195 6.4839 8.3008
196 12.6859 -2.4414
197 14.0955 -4.8828
198 15.5050 -7.3242
199 12.6859 2.4414
200 14.0955 4.8828
201 15.5050 7.3242
202 3.9467 9.7656
203 -3.9467 9.7656
204 8.4573 9.7656
205 11.2764 9.7656
206 14.0955 9.7656
207 4.2286 12.2070
208 2.8191 14.6484
209 1.4095 17.0898
210 -6.4839 8.3008
211 -10.4306 1.4648
212 -4.2286 12.2070
213 -2.8191 14.6484
214 -1.4095 17.0898
215 -8.4573 9.7656
216 -11.2764 9.7656
217 -14.0955 9.7656
218 -10.4306 -1.4648
219 -6.4839 -8.3008
220 -12.6859 2.4414
221 -14.0955 4.8828
222 -15.5050 7.3242
223 -12.6859 -2.4414
224 -14.0955 -4.8828
225 -15.5050 -7.3242
226 -3.9467 -9.7656
227 3.9467 -9.7656
228 -8.4573 -9.7656
229 -11.2764 -9.7656
230 -14.0955 -9.7656
231 -4.2286 -12.2070
232 -2.8191 -14.6484
233 -1.4095 -17.0898
234 6.4839 -8.3008
235 10.4306 -1.4648
236 4.2286 -12.2070
237 2.8191 -14.6484
238 1.4095 -17.0898
239 8.4573 -9.7656
240 11.2764 -9.7656
241 14.0955 -9.7656
242 14.0955 0.0000
243 7.0477 12.2070
244 -7.0477 12.2070
245 -14.0955 0.0000
246 -7.0477 -12.2070
247 7.0477 -12.2070
248 21.1432 12.2070
249 0.0000 24.4141
250 -21.1432 12.2070
251 -21.1432 -12.2070
252 0.0000 -24.4141
253 21.1432 -12.2070
254 13.0383 1.8311
255 8.1049 10.3760
256 15.8574 -3.0518
257 17.6193 -6.1035
258 19.3813 -9.1553
259 15.8574 3.0518
260 17.6193 6.1035
261 19.3813 9.1553
262 4.9334 12.2070
263 -4.9334 12.2070
264 10.5716 12.2070
265 14.0955 12.2070
266 17.6193 12.2070
267 5.2858 15.2588
268 3.5239 18.3105
269 1.7619 21.3623
270 -8.1049 10.3760
271 -13.0383 1.8311
272 -5.2858 15.2588
273 -3.5239 18.3105
274 -1.7619 21.3623
275 -10.5716 12.2070
276 -14.0955 12.2070
277 -17.6193 12.2070
278 -13.0383 -1.8311
279 -8.1049 -10.3760
280 -15.8574 3.0518
281 -17.6193 6.1035
282 -19.3813 9.1553
283 -15.8574 -3.0518
284 -17.6193 -6.1035
285 -19.3813 -9.1553
286 -4.9334 -12.2070
287 4.9334 -12.2070
288 -10.5716 -12.2070
289 -14.0955 -12.2070
290 -17.6193 -12.2070
291 -5.2858 -15.2588
292 -3.5239 -18.3105
293 -1.7619 -21.3623
294 8.1049 -10.3760
295 13.0383 -1.8311
296 5.2858 -15.2588
297 3.5239 -18.3105
298 1.7619 -21.3623
299 10.5716 -12.2070
300 14.0955 -12.2070
301 17.6193 -12.2070
DEMAND_SECTION
1 0
2 40
3 40
4 40
5 40
6 40
7 40
8 40
9 40
10 40
11 40
12 40
13 40
14 10
15 10
16 10
17 20
18 10
19 10
20 20
21 10
22 10
23 10
24 10
25 20
26 10
27 10
28 20
29 10
30 10
31 10
32 10
33 20
34 10
35 10
36 20
37 10
38 10
39 10
40 10
41 20
42 10
43 10
44 20
45 10
46 10
47 10
48 10
49 20
50 10
51 10
52 20
53 10
54 10
55 10
56 10
57 20
58 10
59 10
60 20
61 10
62 40
63 40
64 40
65 40
66 40
67 40
68 40
69 40
70 40
71 40
72 40
73 40
74 10
75 10
76 10
77 20
78 10
79 10
80 20
81 10
82 10
83 10
84 10
85 20
86 10
87 10
88 20
89 10
90 10
91 10
92 10
93 20
94 10
95 10
96 20
97 10
98 10
99 10
100 10
101 20
102 10
103 10
104 20
105 10
106 10
107 10
108 10
109 20
110 10
111 10
112 20
113 10
114 10
115 10
116 10
117 20
118 10
119 10
120 20
121 10
122 40
123 40
124 40
125 40
126 40
127 40
128 40
129 40
130 40
131 40
132 40
133 40
134 10
135 10
136 10
137 20
138 10
139 10
140 20
141 10
142 10
143 10
144 10
145 20
146 10
147 10
148 20
149 10
150 10
151 10
152 10
153 20
154 10
155 10
156 20
157 10
158 10
159 10
160 10
161 20
162 10
163 10
164 20
165 10
166 10
167 10
168 10
169 20
170 10
171 10
172 20
173 10
174 10
175 10
176 10
177 20
178 10
179 10
180 20
181 10
182 40
183 40
184 40
185 40
186 40
187 40
188 40
189 40
190 40
191 40
192 40
193 40
194 10
195 10
196 10
197 20
198 10
199 10
200 20
201 10
202 10
203 10
204 10
205 20
206 10
207 10
208 20
209 10
210 10
211 10
212 10
213 20
214 10
215 10
216 20
217 10
218 10
219 10
220 10
221 20
222 10
223 10
224 20
225 10
226 10
227 10
228 10
229 20
230 10
231 10
232 20
233 10
234 10
235 10
236 10
237 20
238 10
239 10
240 20
241 10
242 40
243 40
244 40
245 40
246 40
247 40
248 40
249 40
250 40
251 40
252 40
253 40
254 10
255 10
256 10
257 20
258 10
259 10
260 20
261 10
262 10
263 10
264 10
265 20
266 10
267 10
268 20
269 10
270 10
271 10
272 10
273 20
274 10
275 10
276 20
277 10
278 10
279 10
280 10
281 20
282 10
283 10
284 20
285 10
286 10
287 10
288 10
289 20
290 10
291 10
292 20
293 10
294 10
295 10
296 10
297 20
298 10
299 10
300 20
301 10
CLUSTER_SECTION
1 29
2 7
3 5
4 3
5 11
6 13
7 15
8 6
9 4
10 2
11 12
12 14
13 8
14 7
15 5
16 7
17 8
18 8
19 6
20 6
21 6
22 4
23 3
24 5
25 5
26 6
27 4
28 4
29 10
30 3
31 11
32 3
33 4
34 4
35 3
36 3
37 2
38 11
39 13
40 11
41 3
42 3
43 11
44 12
45 12
46 13
47 15
48 12
49 12
50 12
51 13
52 14
53 14
54 15
55 7
56 15
57 15
58 14
59 15
60 16
61 8
62 7
63 5
64 3
65 11
66 13
67 15
68 6
69 10
70 17
71 19
72 20
73 22
74 7
75 5
76 7
77 8
78 8
79 7
80 6
81 6
82 5
83 4
84 5
85 6
86 6
87 5
88 10
89 10
90 3
91 11
92 4
93 4
94 10
95 3
96 2
97 2
98 11
99 13
100 11
101 17
102 17
103 12
104 12
105 12
106 13
107 15
108 13
109 12
110 19
111 13
112 14
113 14
114 16
115 7
116 15
117 15
118 20
119 16
120 16
121 16
122 7
123 9
124 4
125 11
126 13
127 16
128 24
129 10
130 17
131 19
132 20
133 22
134 7
135 5
136 8
137 22
138 22
139 8
140 23
141 23
142 5
143 4
144 6
145 9
146 24
147 9
148 10
149 10
150 3
151 11
152 1
153 1
154 10
155 2
156 2
157 2
158 12
159 13
160 17
161 17
162 17
163 12
164 18
165 19
166 14
167 15
168 14
169 19
170 19
171 14
172 20
173 20
174 16
175 8
176 15
177 20
178 20
179 16
180 22
181 22
182 8
183 9
184 1
185 18
186 14
187 16
188 24
189 25
190 26
191 26
192 21
193 23
194 8
195 9
196 22
197 22
198 22
199 23
200 23
201 24
202 9
203 1
204 9
205 24
206 24
207 10
208 25
209 25
210 2
211 17
212 1
213 1
214 25
215 2
216 2
217 17
218 12
219 14
220 17
221 17
222 18
223 18
224 18
225 19
226 14
227 16
228 19
229 19
230 19
231 20
232 20
233 21
234 16
235 8
236 21
237 20
238 21
239 27
240 22
241 27
242 23
243 9
244 1
245 18
246 21
247 27
248 28
249 25
250 26
251 28
252 28
253 27
254 23
255 9
256 23
257 23
258 27
259 23
260 24
261 24
262 10
263 1
264 24
265 24
266 24
267 25
268 25
269 25
270 1
271 18
272 1
273 25
274 25
275 2
276 26
277 26
278 18
279 19
280 18
281 18
282 26
283 18
284 26
285 26
286 21
287 21
288 19
289 21
290 26
291 21
292 21
293 21
294 27
295 23
296 21
297 27
298 27
299 27
300 27
301 27
DEPOT_SECTION
1
-1
EOF
